language Essence 1.3

letting costTC be
        function((1, 1) --> 5, (1, 2) --> 6, (1, 3) --> 15, (1, 4) --> 10, (1, 5) --> 18, (1, 6) --> 2, (2, 1) --> 20,
                 (2, 2) --> 12, (2, 3) --> 2, (2, 4) --> 6, (2, 5) --> 11, (2, 6) --> 13, (3, 1) --> 21, (3, 2) --> 21,
                 (3, 3) --> 14, (3, 4) --> 21, (3, 5) --> 16, (3, 6) --> 9, (4, 1) --> 21, (4, 2) --> 15, (4, 3) --> 6,
                 (4, 4) --> 18, (4, 5) --> 3, (4, 6) --> 8, (5, 1) --> 1, (5, 2) --> 1, (5, 3) --> 5, (5, 4) --> 18,
                 (5, 5) --> 13, (5, 6) --> 11, (6, 1) --> 6, (6, 2) --> 12, (6, 3) --> 3, (6, 4) --> 15, (6, 5) --> 1,
                 (6, 6) --> 9, (7, 1) --> 21, (7, 2) --> 17, (7, 3) --> 15, (7, 4) --> 19, (7, 5) --> 15, (7, 6) --> 21,
                 (8, 1) --> 2, (8, 2) --> 16, (8, 3) --> 11, (8, 4) --> 18, (8, 5) --> 2, (8, 6) --> 9, (9, 1) --> 5,
                 (9, 2) --> 6, (9, 3) --> 5, (9, 4) --> 15, (9, 5) --> 20, (9, 6) --> 4, (10, 1) --> 14, (10, 2) --> 1,
                 (10, 3) --> 17, (10, 4) --> 2, (10, 5) --> 19, (10, 6) --> 6, (11, 1) --> 21, (11, 2) --> 10,
                 (11, 3) --> 4, (11, 4) --> 10, (11, 5) --> 11, (11, 6) --> 17, (12, 1) --> 19, (12, 2) --> 19,
                 (12, 3) --> 15, (12, 4) --> 8, (12, 5) --> 2, (12, 6) --> 16, (13, 1) --> 4, (13, 2) --> 19,
                 (13, 3) --> 2, (13, 4) --> 13, (13, 5) --> 8, (13, 6) --> 20, (14, 1) --> 21, (14, 2) --> 2,
                 (14, 3) --> 9, (14, 4) --> 18, (14, 5) --> 16, (14, 6) --> 7, (15, 1) --> 19, (15, 2) --> 8,
                 (15, 3) --> 9, (15, 4) --> 5, (15, 5) --> 4, (15, 6) --> 20, (16, 1) --> 13, (16, 2) --> 1,
                 (16, 3) --> 16, (16, 4) --> 9, (16, 5) --> 1, (16, 6) --> 21, (17, 1) --> 6, (17, 2) --> 11,
                 (17, 3) --> 11, (17, 4) --> 20, (17, 5) --> 7, (17, 6) --> 18, (18, 1) --> 14, (18, 2) --> 12,
                 (18, 3) --> 14, (18, 4) --> 1, (18, 5) --> 3, (18, 6) --> 15, (19, 1) --> 1, (19, 2) --> 17,
                 (19, 3) --> 9, (19, 4) --> 21, (19, 5) --> 13, (19, 6) --> 4, (20, 1) --> 15, (20, 2) --> 4,
                 (20, 3) --> 6, (20, 4) --> 3, (20, 5) --> 17, (20, 6) --> 8, (21, 1) --> 11, (21, 2) --> 18,
                 (21, 3) --> 17, (21, 4) --> 2, (21, 5) --> 16, (21, 6) --> 18, (22, 1) --> 16, (22, 2) --> 15,
                 (22, 3) --> 20, (22, 4) --> 5, (22, 5) --> 16, (22, 6) --> 1, (23, 1) --> 20, (23, 2) --> 21,
                 (23, 3) --> 1, (23, 4) --> 13, (23, 5) --> 20, (23, 6) --> 2, (24, 1) --> 8, (24, 2) --> 16,
                 (24, 3) --> 15, (24, 4) --> 4, (24, 5) --> 2, (24, 6) --> 12, (25, 1) --> 13, (25, 2) --> 16,
                 (25, 3) --> 5, (25, 4) --> 12, (25, 5) --> 14, (25, 6) --> 2, (26, 1) --> 7, (26, 2) --> 13,
                 (26, 3) --> 21, (26, 4) --> 17, (26, 5) --> 21, (26, 6) --> 15, (27, 1) --> 7, (27, 2) --> 2,
                 (27, 3) --> 9, (27, 4) --> 18, (27, 5) --> 14, (27, 6) --> 4, (28, 1) --> 16, (28, 2) --> 10,
                 (28, 3) --> 7, (28, 4) --> 4, (28, 5) --> 4, (28, 6) --> 9, (29, 1) --> 5, (29, 2) --> 15,
                 (29, 3) --> 11, (29, 4) --> 4, (29, 5) --> 20, (29, 6) --> 17, (30, 1) --> 7, (30, 2) --> 15,
                 (30, 3) --> 8, (30, 4) --> 18, (30, 5) --> 11, (30, 6) --> 21, (31, 1) --> 4, (31, 2) --> 2,
                 (31, 3) --> 8, (31, 4) --> 2, (31, 5) --> 18, (31, 6) --> 15, (32, 1) --> 20, (32, 2) --> 4,
                 (32, 3) --> 8, (32, 4) --> 6, (32, 5) --> 2, (32, 6) --> 7, (33, 1) --> 5, (33, 2) --> 16,
                 (33, 3) --> 13, (33, 4) --> 10, (33, 5) --> 8, (33, 6) --> 9, (34, 1) --> 2, (34, 2) --> 19,
                 (34, 3) --> 1, (34, 4) --> 5, (34, 5) --> 2, (34, 6) --> 9)
letting costWT be
        function((1, 1) --> 1, (1, 2) --> 2, (1, 3) --> 2, (1, 4) --> 1, (1, 5) --> 2, (1, 6) --> 1, (1, 7) --> 2,
                 (1, 8) --> 2, (1, 9) --> 2, (1, 10) --> 1, (1, 11) --> 2, (1, 12) --> 1, (1, 13) --> 3, (1, 14) --> 3,
                 (1, 15) --> 3, (1, 16) --> 2, (1, 17) --> 3, (1, 18) --> 2, (1, 19) --> 1, (1, 20) --> 2,
                 (1, 21) --> 3, (1, 22) --> 1, (1, 23) --> 1, (1, 24) --> 2, (1, 25) --> 2, (1, 26) --> 3,
                 (1, 27) --> 2, (1, 28) --> 1, (1, 29) --> 3, (1, 30) --> 3, (1, 31) --> 1, (1, 32) --> 1,
                 (1, 33) --> 1, (1, 34) --> 3, (2, 1) --> 1, (2, 2) --> 2, (2, 3) --> 2, (2, 4) --> 1, (2, 5) --> 2,
                 (2, 6) --> 3, (2, 7) --> 2, (2, 8) --> 2, (2, 9) --> 1, (2, 10) --> 2, (2, 11) --> 1, (2, 12) --> 1,
                 (2, 13) --> 3, (2, 14) --> 3, (2, 15) --> 3, (2, 16) --> 3, (2, 17) --> 1, (2, 18) --> 1,
                 (2, 19) --> 1, (2, 20) --> 2, (2, 21) --> 1, (2, 22) --> 3, (2, 23) --> 3, (2, 24) --> 3,
                 (2, 25) --> 1, (2, 26) --> 3, (2, 27) --> 1, (2, 28) --> 2, (2, 29) --> 1, (2, 30) --> 1,
                 (2, 31) --> 2, (2, 32) --> 1, (2, 33) --> 3, (2, 34) --> 3, (3, 1) --> 2, (3, 2) --> 2, (3, 3) --> 1,
                 (3, 4) --> 3, (3, 5) --> 1, (3, 6) --> 2, (3, 7) --> 1, (3, 8) --> 1, (3, 9) --> 3, (3, 10) --> 1,
                 (3, 11) --> 1, (3, 12) --> 1, (3, 13) --> 3, (3, 14) --> 1, (3, 15) --> 1, (3, 16) --> 1,
                 (3, 17) --> 2, (3, 18) --> 1, (3, 19) --> 1, (3, 20) --> 3, (3, 21) --> 2, (3, 22) --> 3,
                 (3, 23) --> 2, (3, 24) --> 2, (3, 25) --> 3, (3, 26) --> 2, (3, 27) --> 2, (3, 28) --> 3,
                 (3, 29) --> 3, (3, 30) --> 1, (3, 31) --> 3, (3, 32) --> 2, (3, 33) --> 2, (3, 34) --> 2, (4, 1) --> 1,
                 (4, 2) --> 3, (4, 3) --> 3, (4, 4) --> 3, (4, 5) --> 1, (4, 6) --> 3, (4, 7) --> 2, (4, 8) --> 3,
                 (4, 9) --> 2, (4, 10) --> 1, (4, 11) --> 2, (4, 12) --> 1, (4, 13) --> 1, (4, 14) --> 2, (4, 15) --> 2,
                 (4, 16) --> 2, (4, 17) --> 3, (4, 18) --> 1, (4, 19) --> 3, (4, 20) --> 1, (4, 21) --> 1,
                 (4, 22) --> 2, (4, 23) --> 3, (4, 24) --> 3, (4, 25) --> 1, (4, 26) --> 3, (4, 27) --> 1,
                 (4, 28) --> 1, (4, 29) --> 1, (4, 30) --> 3, (4, 31) --> 1, (4, 32) --> 3, (4, 33) --> 2,
                 (4, 34) --> 2, (5, 1) --> 2, (5, 2) --> 1, (5, 3) --> 1, (5, 4) --> 2, (5, 5) --> 1, (5, 6) --> 1,
                 (5, 7) --> 2, (5, 8) --> 3, (5, 9) --> 3, (5, 10) --> 2, (5, 11) --> 1, (5, 12) --> 1, (5, 13) --> 3,
                 (5, 14) --> 3, (5, 15) --> 2, (5, 16) --> 3, (5, 17) --> 3, (5, 18) --> 1, (5, 19) --> 1,
                 (5, 20) --> 2, (5, 21) --> 1, (5, 22) --> 3, (5, 23) --> 1, (5, 24) --> 1, (5, 25) --> 1,
                 (5, 26) --> 3, (5, 27) --> 2, (5, 28) --> 1, (5, 29) --> 2, (5, 30) --> 3, (5, 31) --> 3,
                 (5, 32) --> 1, (5, 33) --> 1, (5, 34) --> 2, (6, 1) --> 3, (6, 2) --> 2, (6, 3) --> 1, (6, 4) --> 2,
                 (6, 5) --> 3, (6, 6) --> 3, (6, 7) --> 3, (6, 8) --> 3, (6, 9) --> 1, (6, 10) --> 3, (6, 11) --> 1,
                 (6, 12) --> 3, (6, 13) --> 2, (6, 14) --> 2, (6, 15) --> 2, (6, 16) --> 1, (6, 17) --> 3,
                 (6, 18) --> 2, (6, 19) --> 3, (6, 20) --> 1, (6, 21) --> 3, (6, 22) --> 1, (6, 23) --> 1,
                 (6, 24) --> 2, (6, 25) --> 3, (6, 26) --> 3, (6, 27) --> 2, (6, 28) --> 1, (6, 29) --> 2,
                 (6, 30) --> 3, (6, 31) --> 3, (6, 32) --> 1, (6, 33) --> 2, (6, 34) --> 2, (7, 1) --> 1, (7, 2) --> 1,
                 (7, 3) --> 2, (7, 4) --> 2, (7, 5) --> 2, (7, 6) --> 3, (7, 7) --> 3, (7, 8) --> 3, (7, 9) --> 1,
                 (7, 10) --> 3, (7, 11) --> 3, (7, 12) --> 1, (7, 13) --> 1, (7, 14) --> 1, (7, 15) --> 2,
                 (7, 16) --> 2, (7, 17) --> 1, (7, 18) --> 2, (7, 19) --> 3, (7, 20) --> 3, (7, 21) --> 2,
                 (7, 22) --> 3, (7, 23) --> 3, (7, 24) --> 1, (7, 25) --> 1, (7, 26) --> 3, (7, 27) --> 3,
                 (7, 28) --> 3, (7, 29) --> 1, (7, 30) --> 2, (7, 31) --> 2, (7, 32) --> 3, (7, 33) --> 3,
                 (7, 34) --> 2, (8, 1) --> 2, (8, 2) --> 1, (8, 3) --> 2, (8, 4) --> 3, (8, 5) --> 1, (8, 6) --> 2,
                 (8, 7) --> 1, (8, 8) --> 3, (8, 9) --> 1, (8, 10) --> 3, (8, 11) --> 1, (8, 12) --> 3, (8, 13) --> 2,
                 (8, 14) --> 1, (8, 15) --> 1, (8, 16) --> 1, (8, 17) --> 3, (8, 18) --> 1, (8, 19) --> 1,
                 (8, 20) --> 1, (8, 21) --> 2, (8, 22) --> 2, (8, 23) --> 3, (8, 24) --> 2, (8, 25) --> 3,
                 (8, 26) --> 3, (8, 27) --> 1, (8, 28) --> 1, (8, 29) --> 3, (8, 30) --> 3, (8, 31) --> 1,
                 (8, 32) --> 2, (8, 33) --> 1, (8, 34) --> 2, (9, 1) --> 2, (9, 2) --> 1, (9, 3) --> 3, (9, 4) --> 3,
                 (9, 5) --> 2, (9, 6) --> 3, (9, 7) --> 3, (9, 8) --> 2, (9, 9) --> 1, (9, 10) --> 2, (9, 11) --> 2,
                 (9, 12) --> 1, (9, 13) --> 1, (9, 14) --> 2, (9, 15) --> 2, (9, 16) --> 2, (9, 17) --> 1,
                 (9, 18) --> 3, (9, 19) --> 3, (9, 20) --> 1, (9, 21) --> 3, (9, 22) --> 1, (9, 23) --> 3,
                 (9, 24) --> 1, (9, 25) --> 3, (9, 26) --> 2, (9, 27) --> 2, (9, 28) --> 3, (9, 29) --> 3,
                 (9, 30) --> 2, (9, 31) --> 3, (9, 32) --> 2, (9, 33) --> 3, (9, 34) --> 1, (10, 1) --> 3,
                 (10, 2) --> 3, (10, 3) --> 2, (10, 4) --> 2, (10, 5) --> 1, (10, 6) --> 1, (10, 7) --> 2,
                 (10, 8) --> 1, (10, 9) --> 1, (10, 10) --> 2, (10, 11) --> 2, (10, 12) --> 1, (10, 13) --> 2,
                 (10, 14) --> 3, (10, 15) --> 3, (10, 16) --> 2, (10, 17) --> 1, (10, 18) --> 2, (10, 19) --> 3,
                 (10, 20) --> 2, (10, 21) --> 2, (10, 22) --> 2, (10, 23) --> 3, (10, 24) --> 2, (10, 25) --> 1,
                 (10, 26) --> 3, (10, 27) --> 2, (10, 28) --> 2, (10, 29) --> 1, (10, 30) --> 3, (10, 31) --> 2,
                 (10, 32) --> 1, (10, 33) --> 1, (10, 34) --> 3, (11, 1) --> 2, (11, 2) --> 2, (11, 3) --> 2,
                 (11, 4) --> 2, (11, 5) --> 1, (11, 6) --> 1, (11, 7) --> 3, (11, 8) --> 2, (11, 9) --> 3,
                 (11, 10) --> 2, (11, 11) --> 2, (11, 12) --> 2, (11, 13) --> 3, (11, 14) --> 2, (11, 15) --> 1,
                 (11, 16) --> 3, (11, 17) --> 2, (11, 18) --> 1, (11, 19) --> 1, (11, 20) --> 3, (11, 21) --> 3,
                 (11, 22) --> 3, (11, 23) --> 3, (11, 24) --> 1, (11, 25) --> 2, (11, 26) --> 3, (11, 27) --> 1,
                 (11, 28) --> 2, (11, 29) --> 3, (11, 30) --> 1, (11, 31) --> 2, (11, 32) --> 3, (11, 33) --> 3,
                 (11, 34) --> 1, (12, 1) --> 3, (12, 2) --> 2, (12, 3) --> 2, (12, 4) --> 2, (12, 5) --> 2,
                 (12, 6) --> 1, (12, 7) --> 2, (12, 8) --> 1, (12, 9) --> 1, (12, 10) --> 2, (12, 11) --> 2,
                 (12, 12) --> 1, (12, 13) --> 3, (12, 14) --> 3, (12, 15) --> 1, (12, 16) --> 3, (12, 17) --> 1,
                 (12, 18) --> 3, (12, 19) --> 1, (12, 20) --> 1, (12, 21) --> 1, (12, 22) --> 2, (12, 23) --> 1,
                 (12, 24) --> 1, (12, 25) --> 1, (12, 26) --> 1, (12, 27) --> 1, (12, 28) --> 3, (12, 29) --> 3,
                 (12, 30) --> 3, (12, 31) --> 3, (12, 32) --> 1, (12, 33) --> 2, (12, 34) --> 1, (13, 1) --> 1,
                 (13, 2) --> 1, (13, 3) --> 1, (13, 4) --> 2, (13, 5) --> 2, (13, 6) --> 3, (13, 7) --> 2,
                 (13, 8) --> 3, (13, 9) --> 2, (13, 10) --> 2, (13, 11) --> 3, (13, 12) --> 1, (13, 13) --> 3,
                 (13, 14) --> 3, (13, 15) --> 2, (13, 16) --> 2, (13, 17) --> 3, (13, 18) --> 3, (13, 19) --> 3,
                 (13, 20) --> 2, (13, 21) --> 2, (13, 22) --> 3, (13, 23) --> 3, (13, 24) --> 3, (13, 25) --> 1,
                 (13, 26) --> 3, (13, 27) --> 1, (13, 28) --> 3, (13, 29) --> 1, (13, 30) --> 1, (13, 31) --> 1,
                 (13, 32) --> 2, (13, 33) --> 1, (13, 34) --> 2)
letting demand be function(1 --> 32, 2 --> 32, 3 --> 32, 4 --> 32, 5 --> 32, 6 --> 32)
letting maxCost be 19
letting n_customer be 6
letting n_transshipment be 34
letting n_warehouses be 13
letting stock be
        function(1 --> 22, 2 --> 22, 3 --> 22, 4 --> 22, 5 --> 22, 6 --> 22, 7 --> 22, 8 --> 22, 9 --> 22, 10 --> 22,
                 11 --> 22, 12 --> 22, 13 --> 22)
